* Problem:    ran12x21-pow2-prescaled
* Class:      LP
* Rows:       285
* Columns:    756
* Non-zeros:  1260
* Format:     Free MPS
*
NAME ran12x21-pow2-prescaled
ROWS
 N R0000000
 E R0000001
 E R0000002
 E R0000003
 E R0000004
 E R0000005
 E R0000006
 E R0000007
 E R0000008
 E R0000009
 E R0000010
 E R0000011
 E R0000012
 E R0000013
 E R0000014
 E R0000015
 E R0000016
 E R0000017
 E R0000018
 E R0000019
 E R0000020
 E R0000021
 E R0000022
 E R0000023
 E R0000024
 E R0000025
 E R0000026
 E R0000027
 E R0000028
 E R0000029
 E R0000030
 E R0000031
 E R0000032
 E R0000033
 E R0000034
 E R0000035
 E R0000036
 E R0000037
 E R0000038
 E R0000039
 E R0000040
 E R0000041
 E R0000042
 E R0000043
 E R0000044
 E R0000045
 E R0000046
 E R0000047
 E R0000048
 E R0000049
 E R0000050
 E R0000051
 E R0000052
 E R0000053
 E R0000054
 E R0000055
 E R0000056
 E R0000057
 E R0000058
 E R0000059
 E R0000060
 E R0000061
 E R0000062
 E R0000063
 E R0000064
 E R0000065
 E R0000066
 E R0000067
 E R0000068
 E R0000069
 E R0000070
 E R0000071
 E R0000072
 E R0000073
 E R0000074
 E R0000075
 E R0000076
 E R0000077
 E R0000078
 E R0000079
 E R0000080
 E R0000081
 E R0000082
 E R0000083
 E R0000084
 E R0000085
 E R0000086
 E R0000087
 E R0000088
 E R0000089
 E R0000090
 E R0000091
 E R0000092
 E R0000093
 E R0000094
 E R0000095
 E R0000096
 E R0000097
 E R0000098
 E R0000099
 E R0000100
 E R0000101
 E R0000102
 E R0000103
 E R0000104
 E R0000105
 E R0000106
 E R0000107
 E R0000108
 E R0000109
 E R0000110
 E R0000111
 E R0000112
 E R0000113
 E R0000114
 E R0000115
 E R0000116
 E R0000117
 E R0000118
 E R0000119
 E R0000120
 E R0000121
 E R0000122
 E R0000123
 E R0000124
 E R0000125
 E R0000126
 E R0000127
 E R0000128
 E R0000129
 E R0000130
 E R0000131
 E R0000132
 E R0000133
 E R0000134
 E R0000135
 E R0000136
 E R0000137
 E R0000138
 E R0000139
 E R0000140
 E R0000141
 E R0000142
 E R0000143
 E R0000144
 E R0000145
 E R0000146
 E R0000147
 E R0000148
 E R0000149
 E R0000150
 E R0000151
 E R0000152
 E R0000153
 E R0000154
 E R0000155
 E R0000156
 E R0000157
 E R0000158
 E R0000159
 E R0000160
 E R0000161
 E R0000162
 E R0000163
 E R0000164
 E R0000165
 E R0000166
 E R0000167
 E R0000168
 E R0000169
 E R0000170
 E R0000171
 E R0000172
 E R0000173
 E R0000174
 E R0000175
 E R0000176
 E R0000177
 E R0000178
 E R0000179
 E R0000180
 E R0000181
 E R0000182
 E R0000183
 E R0000184
 E R0000185
 E R0000186
 E R0000187
 E R0000188
 E R0000189
 E R0000190
 E R0000191
 E R0000192
 E R0000193
 E R0000194
 E R0000195
 E R0000196
 E R0000197
 E R0000198
 E R0000199
 E R0000200
 E R0000201
 E R0000202
 E R0000203
 E R0000204
 E R0000205
 E R0000206
 E R0000207
 E R0000208
 E R0000209
 E R0000210
 E R0000211
 E R0000212
 E R0000213
 E R0000214
 E R0000215
 E R0000216
 E R0000217
 E R0000218
 E R0000219
 E R0000220
 E R0000221
 E R0000222
 E R0000223
 E R0000224
 E R0000225
 E R0000226
 E R0000227
 E R0000228
 E R0000229
 E R0000230
 E R0000231
 E R0000232
 E R0000233
 E R0000234
 E R0000235
 E R0000236
 E R0000237
 E R0000238
 E R0000239
 E R0000240
 E R0000241
 E R0000242
 E R0000243
 E R0000244
 E R0000245
 E R0000246
 E R0000247
 E R0000248
 E R0000249
 E R0000250
 E R0000251
 E R0000252
 E R0000253
 E R0000254
 E R0000255
 E R0000256
 E R0000257
 E R0000258
 E R0000259
 E R0000260
 E R0000261
 E R0000262
 E R0000263
 E R0000264
 E R0000265
 E R0000266
 E R0000267
 E R0000268
 E R0000269
 E R0000270
 E R0000271
 E R0000272
 E R0000273
 E R0000274
 E R0000275
 E R0000276
 E R0000277
 E R0000278
 E R0000279
 E R0000280
 E R0000281
 E R0000282
 E R0000283
 E R0000284
 E R0000285
COLUMNS
 c0 R0000000 32 R0000034 32
 c0 R0000013 32 R0000001 32
 c1 R0000000 32 R0000035 32
 c1 R0000014 32 R0000001 32
 c2 R0000000 224 R0000036 32
 c2 R0000015 32 R0000001 32
 c3 R0000000 224 R0000037 32
 c3 R0000016 32 R0000001 32
 c4 R0000000 224 R0000038 32
 c4 R0000017 32 R0000001 32
 c5 R0000000 320 R0000039 32
 c5 R0000018 32 R0000001 32
 c6 R0000000 320 R0000040 32
 c6 R0000019 32 R0000001 32
 c7 R0000000 320 R0000041 32
 c7 R0000020 32 R0000001 32
 c8 R0000000 288 R0000042 32
 c8 R0000021 32 R0000001 32
 c9 R0000000 288 R0000043 32
 c9 R0000022 32 R0000001 32
 c10 R0000000 160 R0000044 32
 c10 R0000023 32 R0000001 32
 c11 R0000000 288 R0000045 32
 c11 R0000024 32 R0000001 32
 c12 R0000000 64 R0000046 32
 c12 R0000025 32 R0000001 32
 c13 R0000000 96 R0000047 32
 c13 R0000026 32 R0000001 32
 c14 R0000000 256 R0000048 32
 c14 R0000027 32 R0000001 32
 c15 R0000000 256 R0000049 32
 c15 R0000028 32 R0000001 32
 c16 R0000000 64 R0000050 32
 c16 R0000029 32 R0000001 32
 c17 R0000000 320 R0000051 32
 c17 R0000030 32 R0000001 32
 c18 R0000000 224 R0000052 32
 c18 R0000031 32 R0000001 32
 c19 R0000000 128 R0000053 32
 c19 R0000032 32 R0000001 32
 c20 R0000000 288 R0000054 32
 c20 R0000033 32 R0000001 32
 c21 R0000000 128 R0000055 32
 c21 R0000013 32 R0000002 32
 c22 R0000000 320 R0000056 32
 c22 R0000014 32 R0000002 32
 c23 R0000000 32 R0000057 32
 c23 R0000015 32 R0000002 32
 c24 R0000000 32 R0000058 32
 c24 R0000016 32 R0000002 32
 c25 R0000000 96 R0000059 32
 c25 R0000017 32 R0000002 32
 c26 R0000000 320 R0000060 32
 c26 R0000018 32 R0000002 32
 c27 R0000000 64 R0000061 32
 c27 R0000019 32 R0000002 32
 c28 R0000000 64 R0000062 32
 c28 R0000020 32 R0000002 32
 c29 R0000000 224 R0000063 32
 c29 R0000021 32 R0000002 32
 c30 R0000000 288 R0000064 32
 c30 R0000022 32 R0000002 32
 c31 R0000000 320 R0000065 32
 c31 R0000023 32 R0000002 32
 c32 R0000000 160 R0000066 32
 c32 R0000024 32 R0000002 32
 c33 R0000000 192 R0000067 32
 c33 R0000025 32 R0000002 32
 c34 R0000000 288 R0000068 32
 c34 R0000026 32 R0000002 32
 c35 R0000000 64 R0000069 32
 c35 R0000027 32 R0000002 32
 c36 R0000000 320 R0000070 32
 c36 R0000028 32 R0000002 32
 c37 R0000000 160 R0000071 32
 c37 R0000029 32 R0000002 32
 c38 R0000000 96 R0000072 32
 c38 R0000030 32 R0000002 32
 c39 R0000000 128 R0000073 32
 c39 R0000031 32 R0000002 32
 c40 R0000000 64 R0000074 32
 c40 R0000032 32 R0000002 32
 c41 R0000000 96 R0000075 32
 c41 R0000033 32 R0000002 32
 c42 R0000000 320 R0000076 32
 c42 R0000013 32 R0000003 32
 c43 R0000000 128 R0000077 32
 c43 R0000014 32 R0000003 32
 c44 R0000000 32 R0000078 32
 c44 R0000015 32 R0000003 32
 c45 R0000000 96 R0000079 32
 c45 R0000016 32 R0000003 32
 c46 R0000000 320 R0000080 32
 c46 R0000017 32 R0000003 32
 c47 R0000000 32 R0000081 32
 c47 R0000018 32 R0000003 32
 c48 R0000000 256 R0000082 32
 c48 R0000019 32 R0000003 32
 c49 R0000000 256 R0000083 32
 c49 R0000020 32 R0000003 32
 c50 R0000000 192 R0000084 32
 c50 R0000021 32 R0000003 32
 c51 R0000000 64 R0000085 32
 c51 R0000022 32 R0000003 32
 c52 R0000000 224 R0000086 32
 c52 R0000023 32 R0000003 32
 c53 R0000000 64 R0000087 32
 c53 R0000024 32 R0000003 32
 c54 R0000000 128 R0000088 32
 c54 R0000025 32 R0000003 32
 c55 R0000000 64 R0000089 32
 c55 R0000026 32 R0000003 32
 c56 R0000000 160 R0000090 32
 c56 R0000027 32 R0000003 32
 c57 R0000000 288 R0000091 32
 c57 R0000028 32 R0000003 32
 c58 R0000000 224 R0000092 32
 c58 R0000029 32 R0000003 32
 c59 R0000000 192 R0000093 32
 c59 R0000030 32 R0000003 32
 c60 R0000000 320 R0000094 32
 c60 R0000031 32 R0000003 32
 c61 R0000000 128 R0000095 32
 c61 R0000032 32 R0000003 32
 c62 R0000000 288 R0000096 32
 c62 R0000033 32 R0000003 32
 c63 R0000000 32 R0000097 32
 c63 R0000013 32 R0000004 32
 c64 R0000000 320 R0000098 32
 c64 R0000014 32 R0000004 32
 c65 R0000000 320 R0000099 32
 c65 R0000015 32 R0000004 32
 c66 R0000000 160 R0000100 32
 c66 R0000016 32 R0000004 32
 c67 R0000000 224 R0000101 32
 c67 R0000017 32 R0000004 32
 c68 R0000000 256 R0000102 32
 c68 R0000018 32 R0000004 32
 c69 R0000000 320 R0000103 32
 c69 R0000019 32 R0000004 32
 c70 R0000000 320 R0000104 32
 c70 R0000020 32 R0000004 32
 c71 R0000000 192 R0000105 32
 c71 R0000021 32 R0000004 32
 c72 R0000000 320 R0000106 32
 c72 R0000022 32 R0000004 32
 c73 R0000000 288 R0000107 32
 c73 R0000023 32 R0000004 32
 c74 R0000000 64 R0000108 32
 c74 R0000024 32 R0000004 32
 c75 R0000000 160 R0000109 32
 c75 R0000025 32 R0000004 32
 c76 R0000000 64 R0000110 32
 c76 R0000026 32 R0000004 32
 c77 R0000000 160 R0000111 32
 c77 R0000027 32 R0000004 32
 c78 R0000000 224 R0000112 32
 c78 R0000028 32 R0000004 32
 c79 R0000000 128 R0000113 32
 c79 R0000029 32 R0000004 32
 c80 R0000000 64 R0000114 32
 c80 R0000030 32 R0000004 32
 c81 R0000000 288 R0000115 32
 c81 R0000031 32 R0000004 32
 c82 R0000000 224 R0000116 32
 c82 R0000032 32 R0000004 32
 c83 R0000000 160 R0000117 32
 c83 R0000033 32 R0000004 32
 c84 R0000000 256 R0000118 32
 c84 R0000013 32 R0000005 32
 c85 R0000000 128 R0000119 32
 c85 R0000014 32 R0000005 32
 c86 R0000000 128 R0000120 32
 c86 R0000015 32 R0000005 32
 c87 R0000000 128 R0000121 32
 c87 R0000016 32 R0000005 32
 c88 R0000000 96 R0000122 32
 c88 R0000017 32 R0000005 32
 c89 R0000000 32 R0000123 32
 c89 R0000018 32 R0000005 32
 c90 R0000000 96 R0000124 32
 c90 R0000019 32 R0000005 32
 c91 R0000000 64 R0000125 32
 c91 R0000020 32 R0000005 32
 c92 R0000000 32 R0000126 32
 c92 R0000021 32 R0000005 32
 c93 R0000000 256 R0000127 32
 c93 R0000022 32 R0000005 32
 c94 R0000000 64 R0000128 32
 c94 R0000023 32 R0000005 32
 c95 R0000000 288 R0000129 32
 c95 R0000024 32 R0000005 32
 c96 R0000000 320 R0000130 32
 c96 R0000025 32 R0000005 32
 c97 R0000000 192 R0000131 32
 c97 R0000026 32 R0000005 32
 c98 R0000000 64 R0000132 32
 c98 R0000027 32 R0000005 32
 c99 R0000000 96 R0000133 32
 c99 R0000028 32 R0000005 32
 c100 R0000000 224 R0000134 32
 c100 R0000029 32 R0000005 32
 c101 R0000000 160 R0000135 32
 c101 R0000030 32 R0000005 32
 c102 R0000000 128 R0000136 32
 c102 R0000031 32 R0000005 32
 c103 R0000000 224 R0000137 32
 c103 R0000032 32 R0000005 32
 c104 R0000000 320 R0000138 32
 c104 R0000033 32 R0000005 32
 c105 R0000000 128 R0000139 32
 c105 R0000013 32 R0000006 32
 c106 R0000000 128 R0000140 32
 c106 R0000014 32 R0000006 32
 c107 R0000000 224 R0000141 32
 c107 R0000015 32 R0000006 32
 c108 R0000000 224 R0000142 32
 c108 R0000016 32 R0000006 32
 c109 R0000000 320 R0000143 32
 c109 R0000017 32 R0000006 32
 c110 R0000000 224 R0000144 32
 c110 R0000018 32 R0000006 32
 c111 R0000000 32 R0000145 32
 c111 R0000019 32 R0000006 32
 c112 R0000000 256 R0000146 32
 c112 R0000020 32 R0000006 32
 c113 R0000000 224 R0000147 32
 c113 R0000021 32 R0000006 32
 c114 R0000000 288 R0000148 32
 c114 R0000022 32 R0000006 32
 c115 R0000000 224 R0000149 32
 c115 R0000023 32 R0000006 32
 c116 R0000000 224 R0000150 32
 c116 R0000024 32 R0000006 32
 c117 R0000000 160 R0000151 32
 c117 R0000025 32 R0000006 32
 c118 R0000000 32 R0000152 32
 c118 R0000026 32 R0000006 32
 c119 R0000000 64 R0000153 32
 c119 R0000027 32 R0000006 32
 c120 R0000000 160 R0000154 32
 c120 R0000028 32 R0000006 32
 c121 R0000000 256 R0000155 32
 c121 R0000029 32 R0000006 32
 c122 R0000000 288 R0000156 32
 c122 R0000030 32 R0000006 32
 c123 R0000000 256 R0000157 32
 c123 R0000031 32 R0000006 32
 c124 R0000000 288 R0000158 32
 c124 R0000032 32 R0000006 32
 c125 R0000000 288 R0000159 32
 c125 R0000033 32 R0000006 32
 c126 R0000000 128 R0000160 32
 c126 R0000013 32 R0000007 32
 c127 R0000000 224 R0000161 32
 c127 R0000014 32 R0000007 32
 c128 R0000000 32 R0000162 32
 c128 R0000015 32 R0000007 32
 c129 R0000000 128 R0000163 32
 c129 R0000016 32 R0000007 32
 c130 R0000000 32 R0000164 32
 c130 R0000017 32 R0000007 32
 c131 R0000000 160 R0000165 32
 c131 R0000018 32 R0000007 32
 c132 R0000000 32 R0000166 32
 c132 R0000019 32 R0000007 32
 c133 R0000000 64 R0000167 32
 c133 R0000020 32 R0000007 32
 c134 R0000000 64 R0000168 32
 c134 R0000021 32 R0000007 32
 c135 R0000000 160 R0000169 32
 c135 R0000022 32 R0000007 32
 c136 R0000000 160 R0000170 32
 c136 R0000023 32 R0000007 32
 c137 R0000000 224 R0000171 32
 c137 R0000024 32 R0000007 32
 c138 R0000000 64 R0000172 32
 c138 R0000025 32 R0000007 32
 c139 R0000000 192 R0000173 32
 c139 R0000026 32 R0000007 32
 c140 R0000000 192 R0000174 32
 c140 R0000027 32 R0000007 32
 c141 R0000000 192 R0000175 32
 c141 R0000028 32 R0000007 32
 c142 R0000000 192 R0000176 32
 c142 R0000029 32 R0000007 32
 c143 R0000000 192 R0000177 32
 c143 R0000030 32 R0000007 32
 c144 R0000000 96 R0000178 32
 c144 R0000031 32 R0000007 32
 c145 R0000000 96 R0000179 32
 c145 R0000032 32 R0000007 32
 c146 R0000000 128 R0000180 32
 c146 R0000033 32 R0000007 32
 c147 R0000000 32 R0000181 32
 c147 R0000013 32 R0000008 32
 c148 R0000000 32 R0000182 32
 c148 R0000014 32 R0000008 32
 c149 R0000000 128 R0000183 32
 c149 R0000015 32 R0000008 32
 c150 R0000000 256 R0000184 32
 c150 R0000016 32 R0000008 32
 c151 R0000000 320 R0000185 32
 c151 R0000017 32 R0000008 32
 c152 R0000000 96 R0000186 32
 c152 R0000018 32 R0000008 32
 c153 R0000000 288 R0000187 32
 c153 R0000019 32 R0000008 32
 c154 R0000000 128 R0000188 32
 c154 R0000020 32 R0000008 32
 c155 R0000000 256 R0000189 32
 c155 R0000021 32 R0000008 32
 c156 R0000000 96 R0000190 32
 c156 R0000022 32 R0000008 32
 c157 R0000000 288 R0000191 32
 c157 R0000023 32 R0000008 32
 c158 R0000000 160 R0000192 32
 c158 R0000024 32 R0000008 32
 c159 R0000000 160 R0000193 32
 c159 R0000025 32 R0000008 32
 c160 R0000000 64 R0000194 32
 c160 R0000026 32 R0000008 32
 c161 R0000000 160 R0000195 32
 c161 R0000027 32 R0000008 32
 c162 R0000000 256 R0000196 32
 c162 R0000028 32 R0000008 32
 c163 R0000000 160 R0000197 32
 c163 R0000029 32 R0000008 32
 c164 R0000000 128 R0000198 32
 c164 R0000030 32 R0000008 32
 c165 R0000000 192 R0000199 32
 c165 R0000031 32 R0000008 32
 c166 R0000000 128 R0000200 32
 c166 R0000032 32 R0000008 32
 c167 R0000000 32 R0000201 32
 c167 R0000033 32 R0000008 32
 c168 R0000000 320 R0000202 32
 c168 R0000013 32 R0000009 32
 c169 R0000000 32 R0000203 32
 c169 R0000014 32 R0000009 32
 c170 R0000000 320 R0000204 32
 c170 R0000015 32 R0000009 32
 c171 R0000000 224 R0000205 32
 c171 R0000016 32 R0000009 32
 c172 R0000000 192 R0000206 32
 c172 R0000017 32 R0000009 32
 c173 R0000000 288 R0000207 32
 c173 R0000018 32 R0000009 32
 c174 R0000000 224 R0000208 32
 c174 R0000019 32 R0000009 32
 c175 R0000000 320 R0000209 32
 c175 R0000020 32 R0000009 32
 c176 R0000000 96 R0000210 32
 c176 R0000021 32 R0000009 32
 c177 R0000000 320 R0000211 32
 c177 R0000022 32 R0000009 32
 c178 R0000000 160 R0000212 32
 c178 R0000023 32 R0000009 32
 c179 R0000000 192 R0000213 32
 c179 R0000024 32 R0000009 32
 c180 R0000000 160 R0000214 32
 c180 R0000025 32 R0000009 32
 c181 R0000000 192 R0000215 32
 c181 R0000026 32 R0000009 32
 c182 R0000000 192 R0000216 32
 c182 R0000027 32 R0000009 32
 c183 R0000000 320 R0000217 32
 c183 R0000028 32 R0000009 32
 c184 R0000000 256 R0000218 32
 c184 R0000029 32 R0000009 32
 c185 R0000000 256 R0000219 32
 c185 R0000030 32 R0000009 32
 c186 R0000000 128 R0000220 32
 c186 R0000031 32 R0000009 32
 c187 R0000000 96 R0000221 32
 c187 R0000032 32 R0000009 32
 c188 R0000000 96 R0000222 32
 c188 R0000033 32 R0000009 32
 c189 R0000000 320 R0000223 32
 c189 R0000013 32 R0000010 32
 c190 R0000000 288 R0000224 32
 c190 R0000014 32 R0000010 32
 c191 R0000000 224 R0000225 32
 c191 R0000015 32 R0000010 32
 c192 R0000000 128 R0000226 32
 c192 R0000016 32 R0000010 32
 c193 R0000000 224 R0000227 32
 c193 R0000017 32 R0000010 32
 c194 R0000000 128 R0000228 32
 c194 R0000018 32 R0000010 32
 c195 R0000000 128 R0000229 32
 c195 R0000019 32 R0000010 32
 c196 R0000000 320 R0000230 32
 c196 R0000020 32 R0000010 32
 c197 R0000000 256 R0000231 32
 c197 R0000021 32 R0000010 32
 c198 R0000000 320 R0000232 32
 c198 R0000022 32 R0000010 32
 c199 R0000000 32 R0000233 32
 c199 R0000023 32 R0000010 32
 c200 R0000000 160 R0000234 32
 c200 R0000024 32 R0000010 32
 c201 R0000000 64 R0000235 32
 c201 R0000025 32 R0000010 32
 c202 R0000000 192 R0000236 32
 c202 R0000026 32 R0000010 32
 c203 R0000000 96 R0000237 32
 c203 R0000027 32 R0000010 32
 c204 R0000000 224 R0000238 32
 c204 R0000028 32 R0000010 32
 c205 R0000000 160 R0000239 32
 c205 R0000029 32 R0000010 32
 c206 R0000000 256 R0000240 32
 c206 R0000030 32 R0000010 32
 c207 R0000000 96 R0000241 32
 c207 R0000031 32 R0000010 32
 c208 R0000000 96 R0000242 32
 c208 R0000032 32 R0000010 32
 c209 R0000000 256 R0000243 32
 c209 R0000033 32 R0000010 32
 c210 R0000000 320 R0000244 32
 c210 R0000013 32 R0000011 32
 c211 R0000000 320 R0000245 32
 c211 R0000014 32 R0000011 32
 c212 R0000000 32 R0000246 32
 c212 R0000015 32 R0000011 32
 c213 R0000000 128 R0000247 32
 c213 R0000016 32 R0000011 32
 c214 R0000000 224 R0000248 32
 c214 R0000017 32 R0000011 32
 c215 R0000000 256 R0000249 32
 c215 R0000018 32 R0000011 32
 c216 R0000000 32 R0000250 32
 c216 R0000019 32 R0000011 32
 c217 R0000000 320 R0000251 32
 c217 R0000020 32 R0000011 32
 c218 R0000000 96 R0000252 32
 c218 R0000021 32 R0000011 32
 c219 R0000000 320 R0000253 32
 c219 R0000022 32 R0000011 32
 c220 R0000000 320 R0000254 32
 c220 R0000023 32 R0000011 32
 c221 R0000000 320 R0000255 32
 c221 R0000024 32 R0000011 32
 c222 R0000000 192 R0000256 32
 c222 R0000025 32 R0000011 32
 c223 R0000000 192 R0000257 32
 c223 R0000026 32 R0000011 32
 c224 R0000000 160 R0000258 32
 c224 R0000027 32 R0000011 32
 c225 R0000000 32 R0000259 32
 c225 R0000028 32 R0000011 32
 c226 R0000000 256 R0000260 32
 c226 R0000029 32 R0000011 32
 c227 R0000000 256 R0000261 32
 c227 R0000030 32 R0000011 32
 c228 R0000000 288 R0000262 32
 c228 R0000031 32 R0000011 32
 c229 R0000000 288 R0000263 32
 c229 R0000032 32 R0000011 32
 c230 R0000000 224 R0000264 32
 c230 R0000033 32 R0000011 32
 c231 R0000000 160 R0000265 32
 c231 R0000013 32 R0000012 32
 c232 R0000000 224 R0000266 32
 c232 R0000014 32 R0000012 32
 c233 R0000000 128 R0000267 32
 c233 R0000015 32 R0000012 32
 c234 R0000000 256 R0000268 32
 c234 R0000016 32 R0000012 32
 c235 R0000000 96 R0000269 32
 c235 R0000017 32 R0000012 32
 c236 R0000000 160 R0000270 32
 c236 R0000018 32 R0000012 32
 c237 R0000000 32 R0000271 32
 c237 R0000019 32 R0000012 32
 c238 R0000000 128 R0000272 32
 c238 R0000020 32 R0000012 32
 c239 R0000000 160 R0000273 32
 c239 R0000021 32 R0000012 32
 c240 R0000000 96 R0000274 32
 c240 R0000022 32 R0000012 32
 c241 R0000000 288 R0000275 32
 c241 R0000023 32 R0000012 32
 c242 R0000000 288 R0000276 32
 c242 R0000024 32 R0000012 32
 c243 R0000000 64 R0000277 32
 c243 R0000025 32 R0000012 32
 c244 R0000000 160 R0000278 32
 c244 R0000026 32 R0000012 32
 c245 R0000000 288 R0000279 32
 c245 R0000027 32 R0000012 32
 c246 R0000000 128 R0000280 32
 c246 R0000028 32 R0000012 32
 c247 R0000000 64 R0000281 32
 c247 R0000029 32 R0000012 32
 c248 R0000000 256 R0000282 32
 c248 R0000030 32 R0000012 32
 c249 R0000000 96 R0000283 32
 c249 R0000031 32 R0000012 32
 c250 R0000000 64 R0000284 32
 c250 R0000032 32 R0000012 32
 c251 R0000000 288 R0000285 32
 c251 R0000033 32 R0000012 32
 c252 R0000000 3600 R0000034 -32
 c253 R0000000 364 R0000035 -32
 c254 R0000000 3248 R0000036 -32
 c255 R0000000 2864 R0000037 -48
 c256 R0000000 466 R0000038 -38
 c257 R0000000 616 R0000039 -40
 c258 R0000000 480 R0000040 -30
 c259 R0000000 294 R0000041 -48
 c260 R0000000 360 R0000042 -48
 c261 R0000000 908 R0000043 -36
 c262 R0000000 3200 R0000044 -48
 c263 R0000000 174 R0000045 -42
 c264 R0000000 4208 R0000046 -32
 c265 R0000000 500 R0000047 -48
 c266 R0000000 968 R0000048 -40
 c267 R0000000 202 R0000049 -48
 c268 R0000000 624 R0000050 -36
 c269 R0000000 680 R0000051 -28
 c270 R0000000 438 R0000052 -48
 c271 R0000000 756 R0000053 -28
 c272 R0000000 204 R0000054 -48
 c273 R0000000 2992 R0000055 -32
 c274 R0000000 680 R0000056 -32
 c275 R0000000 2112 R0000057 -32
 c276 R0000000 2736 R0000058 -48
 c277 R0000000 162 R0000059 -38
 c278 R0000000 896 R0000060 -40
 c279 R0000000 314 R0000061 -30
 c280 R0000000 344 R0000062 -38
 c281 R0000000 334 R0000063 -38
 c282 R0000000 824 R0000064 -36
 c283 R0000000 1216 R0000065 -48
 c284 R0000000 210 R0000066 -38
 c285 R0000000 1344 R0000067 -32
 c286 R0000000 484 R0000068 -38
 c287 R0000000 1144 R0000069 -40
 c288 R0000000 340 R0000070 -38
 c289 R0000000 848 R0000071 -36
 c290 R0000000 364 R0000072 -28
 c291 R0000000 492 R0000073 -38
 c292 R0000000 784 R0000074 -28
 c293 R0000000 182 R0000075 -38
 c294 R0000000 1968 R0000076 -32
 c295 R0000000 808 R0000077 -32
 c296 R0000000 3792 R0000078 -32
 c297 R0000000 1296 R0000079 -48
 c298 R0000000 272 R0000080 -38
 c299 R0000000 1592 R0000081 -40
 c300 R0000000 324 R0000082 -30
 c301 R0000000 244 R0000083 -31
 c302 R0000000 98 R0000084 -31
 c303 R0000000 628 R0000085 -36
 c304 R0000000 3520 R0000086 -48
 c305 R0000000 392 R0000087 -42
 c306 R0000000 1088 R0000088 -32
 c307 R0000000 183 R0000089 -29
 c308 R0000000 936 R0000090 -40
 c309 R0000000 122 R0000091 -31
 c310 R0000000 600 R0000092 -36
 c311 R0000000 548 R0000093 -28
 c312 R0000000 170 R0000094 -27
 c313 R0000000 280 R0000095 -28
 c314 R0000000 136 R0000096 -27
 c315 R0000000 3808 R0000097 -32
 c316 R0000000 448 R0000098 -32
 c317 R0000000 2352 R0000099 -32
 c318 R0000000 2432 R0000100 -48
 c319 R0000000 220 R0000101 -38
 c320 R0000000 584 R0000102 -40
 c321 R0000000 506 R0000103 -30
 c322 R0000000 135 R0000104 -30
 c323 R0000000 98 R0000105 -30
 c324 R0000000 352 R0000106 -36
 c325 R0000000 1632 R0000107 -48
 c326 R0000000 392 R0000108 -42
 c327 R0000000 1872 R0000109 -32
 c328 R0000000 133 R0000110 -29
 c329 R0000000 752 R0000111 -40
 c330 R0000000 204 R0000112 -30
 c331 R0000000 464 R0000113 -36
 c332 R0000000 528 R0000114 -28
 c333 R0000000 208 R0000115 -27
 c334 R0000000 1024 R0000116 -28
 c335 R0000000 213 R0000117 -27
 c336 R0000000 1168 R0000118 -32
 c337 R0000000 700 R0000119 -32
 c338 R0000000 3232 R0000120 -32
 c339 R0000000 4160 R0000121 -48
 c340 R0000000 468 R0000122 -38
 c341 R0000000 952 R0000123 -40
 c342 R0000000 428 R0000124 -30
 c343 R0000000 79 R0000125 -26
 c344 R0000000 157 R0000126 -26
 c345 R0000000 808 R0000127 -36
 c346 R0000000 4208 R0000128 -48
 c347 R0000000 204 R0000129 -42
 c348 R0000000 1808 R0000130 -32
 c349 R0000000 165 R0000131 -26
 c350 R0000000 1808 R0000132 -40
 c351 R0000000 102 R0000133 -26
 c352 R0000000 768 R0000134 -36
 c353 R0000000 372 R0000135 -28
 c354 R0000000 69 R0000136 -26
 c355 R0000000 876 R0000137 -28
 c356 R0000000 112 R0000138 -26
 c357 R0000000 2464 R0000139 -32
 c358 R0000000 428 R0000140 -32
 c359 R0000000 3040 R0000141 -32
 c360 R0000000 2224 R0000142 -48
 c361 R0000000 176 R0000143 -28
 c362 R0000000 1000 R0000144 -40
 c363 R0000000 208 R0000145 -28
 c364 R0000000 194 R0000146 -28
 c365 R0000000 298 R0000147 -28
 c366 R0000000 536 R0000148 -36
 c367 R0000000 3248 R0000149 -48
 c368 R0000000 168 R0000150 -28
 c369 R0000000 2832 R0000151 -32
 c370 R0000000 236 R0000152 -28
 c371 R0000000 1680 R0000153 -40
 c372 R0000000 166 R0000154 -28
 c373 R0000000 644 R0000155 -36
 c374 R0000000 676 R0000156 -28
 c375 R0000000 482 R0000157 -28
 c376 R0000000 672 R0000158 -28
 c377 R0000000 362 R0000159 -28
 c378 R0000000 2032 R0000160 -32
 c379 R0000000 648 R0000161 -32
 c380 R0000000 3792 R0000162 -32
 c381 R0000000 2800 R0000163 -48
 c382 R0000000 184 R0000164 -38
 c383 R0000000 1512 R0000165 -40
 c384 R0000000 208 R0000166 -30
 c385 R0000000 450 R0000167 -46
 c386 R0000000 450 R0000168 -46
 c387 R0000000 1036 R0000169 -36
 c388 R0000000 2064 R0000170 -48
 c389 R0000000 274 R0000171 -42
 c390 R0000000 3616 R0000172 -32
 c391 R0000000 142 R0000173 -46
 c392 R0000000 2064 R0000174 -40
 c393 R0000000 490 R0000175 -46
 c394 R0000000 816 R0000176 -36
 c395 R0000000 284 R0000177 -28
 c396 R0000000 158 R0000178 -46
 c397 R0000000 268 R0000179 -28
 c398 R0000000 468 R0000180 -46
 c399 R0000000 2304 R0000181 -32
 c400 R0000000 740 R0000182 -32
 c401 R0000000 3744 R0000183 -32
 c402 R0000000 2032 R0000184 -48
 c403 R0000000 224 R0000185 -38
 c404 R0000000 648 R0000186 -40
 c405 R0000000 412 R0000187 -30
 c406 R0000000 308 R0000188 -40
 c407 R0000000 194 R0000189 -40
 c408 R0000000 364 R0000190 -36
 c409 R0000000 2576 R0000191 -48
 c410 R0000000 378 R0000192 -40
 c411 R0000000 1872 R0000193 -32
 c412 R0000000 392 R0000194 -40
 c413 R0000000 1416 R0000195 -40
 c414 R0000000 296 R0000196 -40
 c415 R0000000 1036 R0000197 -36
 c416 R0000000 372 R0000198 -28
 c417 R0000000 438 R0000199 -40
 c418 R0000000 808 R0000200 -28
 c419 R0000000 262 R0000201 -40
 c420 R0000000 1968 R0000202 -32
 c421 R0000000 952 R0000203 -32
 c422 R0000000 1232 R0000204 -32
 c423 R0000000 1376 R0000205 -48
 c424 R0000000 142 R0000206 -38
 c425 R0000000 1816 R0000207 -40
 c426 R0000000 218 R0000208 -30
 c427 R0000000 217 R0000209 -38
 c428 R0000000 115 R0000210 -32
 c429 R0000000 588 R0000211 -36
 c430 R0000000 3952 R0000212 -48
 c431 R0000000 516 R0000213 -42
 c432 R0000000 2064 R0000214 -32
 c433 R0000000 178 R0000215 -29
 c434 R0000000 1000 R0000216 -40
 c435 R0000000 217 R0000217 -50
 c436 R0000000 964 R0000218 -36
 c437 R0000000 912 R0000219 -28
 c438 R0000000 106 R0000220 -27
 c439 R0000000 1044 R0000221 -28
 c440 R0000000 132 R0000222 -27
 c441 R0000000 2352 R0000223 -32
 c442 R0000000 592 R0000224 -32
 c443 R0000000 1152 R0000225 -32
 c444 R0000000 2992 R0000226 -48
 c445 R0000000 220 R0000227 -26
 c446 R0000000 1024 R0000228 -40
 c447 R0000000 192 R0000229 -26
 c448 R0000000 414 R0000230 -26
 c449 R0000000 406 R0000231 -26
 c450 R0000000 868 R0000232 -36
 c451 R0000000 2528 R0000233 -48
 c452 R0000000 258 R0000234 -26
 c453 R0000000 3600 R0000235 -32
 c454 R0000000 356 R0000236 -26
 c455 R0000000 824 R0000237 -40
 c456 R0000000 146 R0000238 -26
 c457 R0000000 612 R0000239 -36
 c458 R0000000 644 R0000240 -28
 c459 R0000000 476 R0000241 -26
 c460 R0000000 364 R0000242 -28
 c461 R0000000 202 R0000243 -26
 c462 R0000000 1968 R0000244 -32
 c463 R0000000 304 R0000245 -32
 c464 R0000000 1248 R0000246 -32
 c465 R0000000 2464 R0000247 -48
 c466 R0000000 298 R0000248 -38
 c467 R0000000 776 R0000249 -40
 c468 R0000000 238 R0000250 -30
 c469 R0000000 146 R0000251 -32
 c470 R0000000 94 R0000252 -32
 c471 R0000000 304 R0000253 -36
 c472 R0000000 2928 R0000254 -48
 c473 R0000000 244 R0000255 -42
 c474 R0000000 2848 R0000256 -32
 c475 R0000000 178 R0000257 -29
 c476 R0000000 848 R0000258 -40
 c477 R0000000 130 R0000259 -32
 c478 R0000000 672 R0000260 -36
 c479 R0000000 484 R0000261 -28
 c480 R0000000 136 R0000262 -27
 c481 R0000000 640 R0000263 -28
 c482 R0000000 162 R0000264 -27
 c483 R0000000 4144 R0000265 -32
 c484 R0000000 668 R0000266 -32
 c485 R0000000 4160 R0000267 -32
 c486 R0000000 2672 R0000268 -48
 c487 R0000000 240 R0000269 -38
 c488 R0000000 1416 R0000270 -40
 c489 R0000000 208 R0000271 -30
 c490 R0000000 95 R0000272 -25
 c491 R0000000 177 R0000273 -25
 c492 R0000000 380 R0000274 -36
 c493 R0000000 3456 R0000275 -48
 c494 R0000000 484 R0000276 -42
 c495 R0000000 4208 R0000277 -32
 c496 R0000000 130 R0000278 -25
 c497 R0000000 1560 R0000279 -40
 c498 R0000000 153 R0000280 -25
 c499 R0000000 836 R0000281 -36
 c500 R0000000 540 R0000282 -28
 c501 R0000000 250 R0000283 -25
 c502 R0000000 408 R0000284 -28
 c503 R0000000 193 R0000285 -25
 c504 R0000034 32
 c505 R0000035 32
 c506 R0000036 32
 c507 R0000037 32
 c508 R0000038 32
 c509 R0000039 32
 c510 R0000040 32
 c511 R0000041 32
 c512 R0000042 32
 c513 R0000043 32
 c514 R0000044 32
 c515 R0000045 32
 c516 R0000046 32
 c517 R0000047 32
 c518 R0000048 32
 c519 R0000049 32
 c520 R0000050 32
 c521 R0000051 32
 c522 R0000052 32
 c523 R0000053 32
 c524 R0000054 32
 c525 R0000055 32
 c526 R0000056 32
 c527 R0000057 32
 c528 R0000058 32
 c529 R0000059 32
 c530 R0000060 32
 c531 R0000061 32
 c532 R0000062 32
 c533 R0000063 32
 c534 R0000064 32
 c535 R0000065 32
 c536 R0000066 32
 c537 R0000067 32
 c538 R0000068 32
 c539 R0000069 32
 c540 R0000070 32
 c541 R0000071 32
 c542 R0000072 32
 c543 R0000073 32
 c544 R0000074 32
 c545 R0000075 32
 c546 R0000076 32
 c547 R0000077 32
 c548 R0000078 32
 c549 R0000079 32
 c550 R0000080 32
 c551 R0000081 32
 c552 R0000082 32
 c553 R0000083 32
 c554 R0000084 32
 c555 R0000085 32
 c556 R0000086 32
 c557 R0000087 32
 c558 R0000088 32
 c559 R0000089 32
 c560 R0000090 32
 c561 R0000091 32
 c562 R0000092 32
 c563 R0000093 32
 c564 R0000094 32
 c565 R0000095 32
 c566 R0000096 32
 c567 R0000097 32
 c568 R0000098 32
 c569 R0000099 32
 c570 R0000100 32
 c571 R0000101 32
 c572 R0000102 32
 c573 R0000103 32
 c574 R0000104 32
 c575 R0000105 32
 c576 R0000106 32
 c577 R0000107 32
 c578 R0000108 32
 c579 R0000109 32
 c580 R0000110 32
 c581 R0000111 32
 c582 R0000112 32
 c583 R0000113 32
 c584 R0000114 32
 c585 R0000115 32
 c586 R0000116 32
 c587 R0000117 32
 c588 R0000118 32
 c589 R0000119 32
 c590 R0000120 32
 c591 R0000121 32
 c592 R0000122 32
 c593 R0000123 32
 c594 R0000124 32
 c595 R0000125 32
 c596 R0000126 32
 c597 R0000127 32
 c598 R0000128 32
 c599 R0000129 32
 c600 R0000130 32
 c601 R0000131 32
 c602 R0000132 32
 c603 R0000133 32
 c604 R0000134 32
 c605 R0000135 32
 c606 R0000136 32
 c607 R0000137 32
 c608 R0000138 32
 c609 R0000139 32
 c610 R0000140 32
 c611 R0000141 32
 c612 R0000142 32
 c613 R0000143 32
 c614 R0000144 32
 c615 R0000145 32
 c616 R0000146 32
 c617 R0000147 32
 c618 R0000148 32
 c619 R0000149 32
 c620 R0000150 32
 c621 R0000151 32
 c622 R0000152 32
 c623 R0000153 32
 c624 R0000154 32
 c625 R0000155 32
 c626 R0000156 32
 c627 R0000157 32
 c628 R0000158 32
 c629 R0000159 32
 c630 R0000160 32
 c631 R0000161 32
 c632 R0000162 32
 c633 R0000163 32
 c634 R0000164 32
 c635 R0000165 32
 c636 R0000166 32
 c637 R0000167 32
 c638 R0000168 32
 c639 R0000169 32
 c640 R0000170 32
 c641 R0000171 32
 c642 R0000172 32
 c643 R0000173 32
 c644 R0000174 32
 c645 R0000175 32
 c646 R0000176 32
 c647 R0000177 32
 c648 R0000178 32
 c649 R0000179 32
 c650 R0000180 32
 c651 R0000181 32
 c652 R0000182 32
 c653 R0000183 32
 c654 R0000184 32
 c655 R0000185 32
 c656 R0000186 32
 c657 R0000187 32
 c658 R0000188 32
 c659 R0000189 32
 c660 R0000190 32
 c661 R0000191 32
 c662 R0000192 32
 c663 R0000193 32
 c664 R0000194 32
 c665 R0000195 32
 c666 R0000196 32
 c667 R0000197 32
 c668 R0000198 32
 c669 R0000199 32
 c670 R0000200 32
 c671 R0000201 32
 c672 R0000202 32
 c673 R0000203 32
 c674 R0000204 32
 c675 R0000205 32
 c676 R0000206 32
 c677 R0000207 32
 c678 R0000208 32
 c679 R0000209 32
 c680 R0000210 32
 c681 R0000211 32
 c682 R0000212 32
 c683 R0000213 32
 c684 R0000214 32
 c685 R0000215 32
 c686 R0000216 32
 c687 R0000217 32
 c688 R0000218 32
 c689 R0000219 32
 c690 R0000220 32
 c691 R0000221 32
 c692 R0000222 32
 c693 R0000223 32
 c694 R0000224 32
 c695 R0000225 32
 c696 R0000226 32
 c697 R0000227 32
 c698 R0000228 32
 c699 R0000229 32
 c700 R0000230 32
 c701 R0000231 32
 c702 R0000232 32
 c703 R0000233 32
 c704 R0000234 32
 c705 R0000235 32
 c706 R0000236 32
 c707 R0000237 32
 c708 R0000238 32
 c709 R0000239 32
 c710 R0000240 32
 c711 R0000241 32
 c712 R0000242 32
 c713 R0000243 32
 c714 R0000244 32
 c715 R0000245 32
 c716 R0000246 32
 c717 R0000247 32
 c718 R0000248 32
 c719 R0000249 32
 c720 R0000250 32
 c721 R0000251 32
 c722 R0000252 32
 c723 R0000253 32
 c724 R0000254 32
 c725 R0000255 32
 c726 R0000256 32
 c727 R0000257 32
 c728 R0000258 32
 c729 R0000259 32
 c730 R0000260 32
 c731 R0000261 32
 c732 R0000262 32
 c733 R0000263 32
 c734 R0000264 32
 c735 R0000265 32
 c736 R0000266 32
 c737 R0000267 32
 c738 R0000268 32
 c739 R0000269 32
 c740 R0000270 32
 c741 R0000271 32
 c742 R0000272 32
 c743 R0000273 32
 c744 R0000274 32
 c745 R0000275 32
 c746 R0000276 32
 c747 R0000277 32
 c748 R0000278 32
 c749 R0000279 32
 c750 R0000280 32
 c751 R0000281 32
 c752 R0000282 32
 c753 R0000283 32
 c754 R0000284 32
 c755 R0000285 32
RHS
 RHS1 R0000001 24 R0000002 19
 RHS1 R0000003 31 R0000004 30
 RHS1 R0000005 26 R0000006 14
 RHS1 R0000007 23 R0000008 20
 RHS1 R0000009 63 R0000010 13
 RHS1 R0000011 32 R0000012 25
 RHS1 R0000013 2 R0000014 8
 RHS1 R0000015 2 R0000016 3
 RHS1 R0000017 19 R0000018 5
 RHS1 R0000019 15 R0000020 38
 RHS1 R0000021 32 R0000022 9
 RHS1 R0000023 3 R0000024 21
 RHS1 R0000025 2 R0000026 29
 RHS1 R0000027 5 R0000028 50
 RHS1 R0000029 9 R0000030 7
 RHS1 R0000031 27 R0000032 7
 RHS1 R0000033 27
BOUNDS
 UP BND1 c252 0.0625
 UP BND1 c253 0.25
 UP BND1 c254 0.0625
 UP BND1 c255 0.0625
 UP BND1 c256 0.5
 UP BND1 c257 0.125
 UP BND1 c258 0.5
 UP BND1 c259 0.5
 UP BND1 c260 0.5
 UP BND1 c261 0.25
 UP BND1 c262 0.0625
 UP BND1 c263 0.5
 UP BND1 c264 0.0625
 UP BND1 c265 0.5
 UP BND1 c266 0.125
 UP BND1 c267 0.5
 UP BND1 c268 0.25
 UP BND1 c269 0.25
 UP BND1 c270 0.5
 UP BND1 c271 0.25
 UP BND1 c272 0.5
 UP BND1 c273 0.0625
 UP BND1 c274 0.25
 UP BND1 c275 0.0625
 UP BND1 c276 0.0625
 UP BND1 c277 0.5
 UP BND1 c278 0.125
 UP BND1 c279 0.5
 UP BND1 c280 0.5
 UP BND1 c281 0.5
 UP BND1 c282 0.25
 UP BND1 c283 0.0625
 UP BND1 c284 0.5
 UP BND1 c285 0.0625
 UP BND1 c286 0.5
 UP BND1 c287 0.125
 UP BND1 c288 0.5
 UP BND1 c289 0.25
 UP BND1 c290 0.25
 UP BND1 c291 0.5
 UP BND1 c292 0.25
 UP BND1 c293 0.5
 UP BND1 c294 0.0625
 UP BND1 c295 0.25
 UP BND1 c296 0.0625
 UP BND1 c297 0.0625
 UP BND1 c298 0.5
 UP BND1 c299 0.125
 UP BND1 c300 0.5
 UP BND1 c301 1
 UP BND1 c302 1
 UP BND1 c303 0.25
 UP BND1 c304 0.0625
 UP BND1 c305 0.5
 UP BND1 c306 0.0625
 UP BND1 c307 1
 UP BND1 c308 0.125
 UP BND1 c309 1
 UP BND1 c310 0.25
 UP BND1 c311 0.25
 UP BND1 c312 1
 UP BND1 c313 0.25
 UP BND1 c314 1
 UP BND1 c315 0.0625
 UP BND1 c316 0.25
 UP BND1 c317 0.0625
 UP BND1 c318 0.0625
 UP BND1 c319 0.5
 UP BND1 c320 0.125
 UP BND1 c321 0.5
 UP BND1 c322 1
 UP BND1 c323 1
 UP BND1 c324 0.25
 UP BND1 c325 0.0625
 UP BND1 c326 0.5
 UP BND1 c327 0.0625
 UP BND1 c328 1
 UP BND1 c329 0.125
 UP BND1 c330 1
 UP BND1 c331 0.25
 UP BND1 c332 0.25
 UP BND1 c333 1
 UP BND1 c334 0.25
 UP BND1 c335 1
 UP BND1 c336 0.0625
 UP BND1 c337 0.25
 UP BND1 c338 0.0625
 UP BND1 c339 0.0625
 UP BND1 c340 0.5
 UP BND1 c341 0.125
 UP BND1 c342 0.5
 UP BND1 c343 1
 UP BND1 c344 1
 UP BND1 c345 0.25
 UP BND1 c346 0.0625
 UP BND1 c347 0.5
 UP BND1 c348 0.0625
 UP BND1 c349 1
 UP BND1 c350 0.125
 UP BND1 c351 1
 UP BND1 c352 0.25
 UP BND1 c353 0.25
 UP BND1 c354 1
 UP BND1 c355 0.25
 UP BND1 c356 1
 UP BND1 c357 0.0625
 UP BND1 c358 0.25
 UP BND1 c359 0.0625
 UP BND1 c360 0.0625
 UP BND1 c361 0.5
 UP BND1 c362 0.125
 UP BND1 c363 0.5
 UP BND1 c364 0.5
 UP BND1 c365 0.5
 UP BND1 c366 0.25
 UP BND1 c367 0.0625
 UP BND1 c368 0.5
 UP BND1 c369 0.0625
 UP BND1 c370 0.5
 UP BND1 c371 0.125
 UP BND1 c372 0.5
 UP BND1 c373 0.25
 UP BND1 c374 0.25
 UP BND1 c375 0.5
 UP BND1 c376 0.25
 UP BND1 c377 0.5
 UP BND1 c378 0.0625
 UP BND1 c379 0.25
 UP BND1 c380 0.0625
 UP BND1 c381 0.0625
 UP BND1 c382 0.5
 UP BND1 c383 0.125
 UP BND1 c384 0.5
 UP BND1 c385 0.5
 UP BND1 c386 0.5
 UP BND1 c387 0.25
 UP BND1 c388 0.0625
 UP BND1 c389 0.5
 UP BND1 c390 0.0625
 UP BND1 c391 0.5
 UP BND1 c392 0.125
 UP BND1 c393 0.5
 UP BND1 c394 0.25
 UP BND1 c395 0.25
 UP BND1 c396 0.5
 UP BND1 c397 0.25
 UP BND1 c398 0.5
 UP BND1 c399 0.0625
 UP BND1 c400 0.25
 UP BND1 c401 0.0625
 UP BND1 c402 0.0625
 UP BND1 c403 0.5
 UP BND1 c404 0.125
 UP BND1 c405 0.5
 UP BND1 c406 0.5
 UP BND1 c407 0.5
 UP BND1 c408 0.25
 UP BND1 c409 0.0625
 UP BND1 c410 0.5
 UP BND1 c411 0.0625
 UP BND1 c412 0.5
 UP BND1 c413 0.125
 UP BND1 c414 0.5
 UP BND1 c415 0.25
 UP BND1 c416 0.25
 UP BND1 c417 0.5
 UP BND1 c418 0.25
 UP BND1 c419 0.5
 UP BND1 c420 0.0625
 UP BND1 c421 0.25
 UP BND1 c422 0.0625
 UP BND1 c423 0.0625
 UP BND1 c424 0.5
 UP BND1 c425 0.125
 UP BND1 c426 0.5
 UP BND1 c427 1
 UP BND1 c428 1
 UP BND1 c429 0.25
 UP BND1 c430 0.0625
 UP BND1 c431 0.5
 UP BND1 c432 0.0625
 UP BND1 c433 1
 UP BND1 c434 0.125
 UP BND1 c435 1
 UP BND1 c436 0.25
 UP BND1 c437 0.25
 UP BND1 c438 1
 UP BND1 c439 0.25
 UP BND1 c440 1
 UP BND1 c441 0.0625
 UP BND1 c442 0.25
 UP BND1 c443 0.0625
 UP BND1 c444 0.0625
 UP BND1 c445 0.5
 UP BND1 c446 0.125
 UP BND1 c447 0.5
 UP BND1 c448 0.5
 UP BND1 c449 0.5
 UP BND1 c450 0.25
 UP BND1 c451 0.0625
 UP BND1 c452 0.5
 UP BND1 c453 0.0625
 UP BND1 c454 0.5
 UP BND1 c455 0.125
 UP BND1 c456 0.5
 UP BND1 c457 0.25
 UP BND1 c458 0.25
 UP BND1 c459 0.5
 UP BND1 c460 0.25
 UP BND1 c461 0.5
 UP BND1 c462 0.0625
 UP BND1 c463 0.25
 UP BND1 c464 0.0625
 UP BND1 c465 0.0625
 UP BND1 c466 0.5
 UP BND1 c467 0.125
 UP BND1 c468 0.5
 UP BND1 c469 1
 UP BND1 c470 1
 UP BND1 c471 0.25
 UP BND1 c472 0.0625
 UP BND1 c473 0.5
 UP BND1 c474 0.0625
 UP BND1 c475 1
 UP BND1 c476 0.125
 UP BND1 c477 1
 UP BND1 c478 0.25
 UP BND1 c479 0.25
 UP BND1 c480 1
 UP BND1 c481 0.25
 UP BND1 c482 1
 UP BND1 c483 0.0625
 UP BND1 c484 0.25
 UP BND1 c485 0.0625
 UP BND1 c486 0.0625
 UP BND1 c487 0.5
 UP BND1 c488 0.125
 UP BND1 c489 0.5
 UP BND1 c490 1
 UP BND1 c491 1
 UP BND1 c492 0.25
 UP BND1 c493 0.0625
 UP BND1 c494 0.5
 UP BND1 c495 0.0625
 UP BND1 c496 1
 UP BND1 c497 0.125
 UP BND1 c498 1
 UP BND1 c499 0.25
 UP BND1 c500 0.25
 UP BND1 c501 1
 UP BND1 c502 0.25
 UP BND1 c503 1
ENDATA
